# Solution for model hub_and_spoke
# Objective value = 1.5428350148177849e+07
x[0,0] 0
x[0,1] 0
x[0,2] 0
x[0,3] 0
x[0,4] 0
x[0,5] 0
x[0,6] 0
x[0,7] 0
x[0,8] 0
x[0,9] 0
x[0,10] 0
x[0,11] 0
x[0,12] 0
x[0,13] 0
x[0,14] 0
x[0,15] 0
x[0,16] 1
x[1,0] 0
x[1,1] 0
x[1,2] 0
x[1,3] 0
x[1,4] 0
x[1,5] 0
x[1,6] 0
x[1,7] 0
x[1,8] 0
x[1,9] 0
x[1,10] 0
x[1,11] 0
x[1,12] 0
x[1,13] 0
x[1,14] 0
x[1,15] 0
x[1,16] 1
x[2,0] 0
x[2,1] 0
x[2,2] 1
x[2,3] 0
x[2,4] 0
x[2,5] 0
x[2,6] 0
x[2,7] 0
x[2,8] 0
x[2,9] 0
x[2,10] 0
x[2,11] 0
x[2,12] 0
x[2,13] 0
x[2,14] 0
x[2,15] 0
x[2,16] 0
x[3,0] 0
x[3,1] 0
x[3,2] 0
x[3,3] 0
x[3,4] 0
x[3,5] 0
x[3,6] 0
x[3,7] 0
x[3,8] 0
x[3,9] 0
x[3,10] 0
x[3,11] 0
x[3,12] 0
x[3,13] 0
x[3,14] 0
x[3,15] 0
x[3,16] 1
x[4,0] 0
x[4,1] 0
x[4,2] 0
x[4,3] 0
x[4,4] 0
x[4,5] 0
x[4,6] 0
x[4,7] 0
x[4,8] 0
x[4,9] 0
x[4,10] 0
x[4,11] 0
x[4,12] 0
x[4,13] 0
x[4,14] 0
x[4,15] 0
x[4,16] 1
x[5,0] 0
x[5,1] 0
x[5,2] 1
x[5,3] 0
x[5,4] 0
x[5,5] 0
x[5,6] 0
x[5,7] 0
x[5,8] 0
x[5,9] 0
x[5,10] 0
x[5,11] 0
x[5,12] 0
x[5,13] 0
x[5,14] 0
x[5,15] 0
x[5,16] 0
x[6,0] 0
x[6,1] 0
x[6,2] 1
x[6,3] 0
x[6,4] 0
x[6,5] 0
x[6,6] 0
x[6,7] 0
x[6,8] 0
x[6,9] 0
x[6,10] 0
x[6,11] 0
x[6,12] 0
x[6,13] 0
x[6,14] 0
x[6,15] 0
x[6,16] 0
x[7,0] 0
x[7,1] 0
x[7,2] 1
x[7,3] 0
x[7,4] 0
x[7,5] 0
x[7,6] 0
x[7,7] 0
x[7,8] 0
x[7,9] 0
x[7,10] 0
x[7,11] 0
x[7,12] 0
x[7,13] 0
x[7,14] 0
x[7,15] 0
x[7,16] 0
x[8,0] 0
x[8,1] 0
x[8,2] 1
x[8,3] 0
x[8,4] 0
x[8,5] 0
x[8,6] 0
x[8,7] 0
x[8,8] 0
x[8,9] 0
x[8,10] 0
x[8,11] 0
x[8,12] 0
x[8,13] 0
x[8,14] 0
x[8,15] 0
x[8,16] 0
x[9,0] 0
x[9,1] 0
x[9,2] 1
x[9,3] 0
x[9,4] 0
x[9,5] 0
x[9,6] 0
x[9,7] 0
x[9,8] 0
x[9,9] 0
x[9,10] 0
x[9,11] 0
x[9,12] 0
x[9,13] 0
x[9,14] 0
x[9,15] 0
x[9,16] 0
x[10,0] 0
x[10,1] 0
x[10,2] 1
x[10,3] 0
x[10,4] 0
x[10,5] 0
x[10,6] 0
x[10,7] 0
x[10,8] 0
x[10,9] 0
x[10,10] 0
x[10,11] 0
x[10,12] 0
x[10,13] 0
x[10,14] 0
x[10,15] 0
x[10,16] 0
x[11,0] 0
x[11,1] 0
x[11,2] 0
x[11,3] 0
x[11,4] 0
x[11,5] 0
x[11,6] 0
x[11,7] 0
x[11,8] 0
x[11,9] 0
x[11,10] 0
x[11,11] 0
x[11,12] 0
x[11,13] 0
x[11,14] 0
x[11,15] 0
x[11,16] 1
x[12,0] 0
x[12,1] 0
x[12,2] 1
x[12,3] 0
x[12,4] 0
x[12,5] 0
x[12,6] 0
x[12,7] 0
x[12,8] 0
x[12,9] 0
x[12,10] 0
x[12,11] 0
x[12,12] 0
x[12,13] 0
x[12,14] 0
x[12,15] 0
x[12,16] 0
x[13,0] 0
x[13,1] 0
x[13,2] 1
x[13,3] 0
x[13,4] 0
x[13,5] 0
x[13,6] 0
x[13,7] 0
x[13,8] 0
x[13,9] 0
x[13,10] 0
x[13,11] 0
x[13,12] 0
x[13,13] 0
x[13,14] 0
x[13,15] 0
x[13,16] 0
x[14,0] 0
x[14,1] 0
x[14,2] 1
x[14,3] 0
x[14,4] 0
x[14,5] 0
x[14,6] 0
x[14,7] 0
x[14,8] 0
x[14,9] 0
x[14,10] 0
x[14,11] 0
x[14,12] 0
x[14,13] 0
x[14,14] 0
x[14,15] 0
x[14,16] 0
x[15,0] 0
x[15,1] 0
x[15,2] 1
x[15,3] 0
x[15,4] 0
x[15,5] 0
x[15,6] 0
x[15,7] 0
x[15,8] 0
x[15,9] 0
x[15,10] 0
x[15,11] 0
x[15,12] 0
x[15,13] 0
x[15,14] 0
x[15,15] 0
x[15,16] 0
x[16,0] 0
x[16,1] 0
x[16,2] 0
x[16,3] 0
x[16,4] 0
x[16,5] 0
x[16,6] 0
x[16,7] 0
x[16,8] 0
x[16,9] 0
x[16,10] 0
x[16,11] 0
x[16,12] 0
x[16,13] 0
x[16,14] 0
x[16,15] 0
x[16,16] 1
h[0] 0
h[1] 0
h[2] 1
h[3] 0
h[4] 0
h[5] 0
h[6] 0
h[7] 0
h[8] 0
h[9] 0
h[10] 0
h[11] 0
h[12] 0
h[13] 0
h[14] 0
h[15] 0
h[16] 1
